(set-logic NRA)
(declare-fun x () Real)
(declare-fun y () Real)
(assert (or (and (= (* (- 1) x y) 0) (<  (+ (+ 1 (* x (* x (- 1)))) (* y y)) 0)) (and (= (* x y (+ (+ 1 (* x (* x (- 2)))) (* y (* y 2)))) 0) (>= (* (- 1) (+ (+ 1 (* x (* x (- 2)))) (* y (+ (* x (- 4)) (* y 2)))) (+ (+ 1 (* x (* x (- 2)))) (* y (+ (* x 4) (* y 2))))) 0)) (and (=  y 0) (<= (* (- 1) (+ (- 1) x)) 0)) (and (=  y 0) (<=  (+ 1 x) 0))))
(apply qe)
